cases/matpower/case5_pwlc.m
ipopt
SOCW
[warn | PowerModels]: added zero cost function data for dclines
[warn | PowerModels]: the from bus voltage setpoint on dc line 1 does not match the value at bus 1
[warn | PowerModels]: the to bus voltage setpoint on dc line 1 does not match the value at bus 10
[warn | PowerModels]: exending the pwl costs model on generator 4 by -0.23 to include the minimum active power value 0.0
[warn | PowerModels]: exending the pwl costs model on generator 4 by 1.4599999999999997 to include the maximum active power value 2.0
[warn | PowerModels]: exending the pwl costs model on generator 1 by 0.40800000000000003 to include the maximum active power value 0.4
[warn | PowerModels]: simplifying pwl cost on generator 1, [-0.001, 0.0, 0.0, 0.0, 0.001, 0.0, 0.41000000000000003, 0.0] -> [-0.001, 0.0, 0.41000000000000003, 0.0]
[warn | PowerModels]: exending the pwl costs model on generator 5 by -0.08 to include the minimum active power value 0.0
[warn | PowerModels]: exending the pwl costs model on generator 5 by 5.91 to include the maximum active power value 6.0
[warn | PowerModels]: exending the pwl costs model on generator 2 by 0.20999999999999996 to include the maximum active power value 1.7
[warn | PowerModels]: simplifying pwl cost on generator 2, [0.0, 841.0, 0.2, 841.0, 1.0, 841.0, 1.71, 841.0] -> [0.0, 841.0, 1.71, 841.0]
[warn | PowerModels]: exending the pwl costs model on generator 3 by -1.71 to include the minimum active power value 0.0
[warn | PowerModels]: exending the pwl costs model on generator 3 by 1.6600000000000001 to include the maximum active power value 5.2

******************************************************************************
This program contains Ipopt, a library for large-scale nonlinear optimization.
 Ipopt is released as open source code under the Eclipse Public License (EPL).
         For more information visit http://projects.coin-or.org/Ipopt
******************************************************************************

This is Ipopt version 3.13.2, running with linear solver mumps.
NOTE: Other linear solvers might be more efficient (see Ipopt documentation).

Number of nonzeros in equality constraint Jacobian...:      177
Number of nonzeros in inequality constraint Jacobian.:      108
Number of nonzeros in Lagrangian Hessian.............:       42

Total number of variables............................:       73
                     variables with only lower bounds:        0
                variables with lower and upper bounds:       73
                     variables with only upper bounds:        0
Total number of equality constraints.................:       47
Total number of inequality constraints...............:       42
        inequality constraints with only lower bounds:       18
   inequality constraints with lower and upper bounds:        0
        inequality constraints with only upper bounds:       24

iter    objective    inf_pr   inf_du lg(mu)  ||d||  lg(rg) alpha_du alpha_pr  ls
   0  2.3089486e+03 3.99e+00 6.95e+00  -1.0 0.00e+00    -  0.00e+00 0.00e+00   0
   1  4.5392244e+03 3.81e+00 7.46e+00  -1.0 1.19e+01    -  6.11e-03 4.45e-02f  1
   2  6.4029482e+03 3.60e+00 7.55e+00  -1.0 5.49e+00    -  2.35e-02 5.62e-02f  1
   3  6.1091247e+03 3.15e+00 7.49e+00  -1.0 5.69e+00    -  1.03e-01 1.25e-01f  1
   4  9.2351946e+03 2.69e+00 1.82e+01  -1.0 4.24e+00    -  4.63e-01 1.44e-01h  1
   5  1.1735476e+04 2.29e+00 7.55e+01  -1.0 3.69e+00    -  3.18e-01 1.51e-01h  1
   6  2.5941917e+04 1.18e+00 1.93e+02  -1.0 2.93e+00    -  8.80e-02 4.83e-01h  1
   7  4.3638861e+04 9.44e-02 1.47e+01  -1.0 1.61e+00    -  9.25e-01 9.20e-01h  1
   8  4.5324862e+04 2.48e-03 1.93e+00  -1.0 7.65e-01    -  1.00e+00 9.74e-01h  1
   9  4.6804245e+04 2.50e-14 2.58e+01  -1.0 2.28e+00    -  4.00e-01 1.00e+00f  1
iter    objective    inf_pr   inf_du lg(mu)  ||d||  lg(rg) alpha_du alpha_pr  ls
  10  4.6547997e+04 1.40e-14 6.29e-05  -1.0 7.30e-01    -  1.00e+00 1.00e+00h  1
  11  4.3367727e+04 1.72e-14 5.42e-01  -2.5 8.79e-01    -  9.11e-01 8.15e-01f  1
  12  4.3019620e+04 1.07e-05 2.22e+00  -2.5 2.42e+00    -  9.48e-01 1.00e+00h  1
  13  4.2997110e+04 3.56e-14 6.39e-01  -2.5 3.47e-01    -  1.00e+00 1.00e+00h  1
  14  4.2997819e+04 5.87e-14 1.85e-03  -2.5 5.43e-02    -  1.00e+00 1.00e+00h  1
  15  4.2916266e+04 2.72e-06 6.41e-01  -3.8 3.73e-01    -  8.97e-01 9.81e-01h  1
  16  4.2902325e+04 4.05e-07 5.63e-01  -3.8 1.78e-01    -  1.00e+00 1.00e+00h  1
  17  4.2901563e+04 1.52e-14 2.61e-03  -3.8 7.18e-02    -  1.00e+00 1.00e+00h  1
  18  4.2901651e+04 1.73e-14 1.24e-05  -3.8 1.15e-02    -  1.00e+00 1.00e+00h  1
  19  4.2896061e+04 9.40e-08 5.23e-02  -5.7 9.25e-02    -  8.09e-01 8.44e-01h  1
iter    objective    inf_pr   inf_du lg(mu)  ||d||  lg(rg) alpha_du alpha_pr  ls
  20  4.2895188e+04 1.22e-07 2.17e-02  -5.7 5.32e-02    -  7.75e-01 1.00e+00h  1
  21  4.2895186e+04 9.44e-09 1.03e-05  -5.7 2.34e-02    -  1.00e+00 1.00e+00h  1
  22  4.2895188e+04 2.14e-14 4.14e-07  -5.7 1.14e-02    -  1.00e+00 1.00e+00h  1
  23  4.2895189e+04 1.75e-14 2.43e-09  -5.7 2.55e-03    -  1.00e+00 1.00e+00h  1
  24  4.2895127e+04 2.02e-09 7.15e-04  -8.6 9.97e-03    -  9.34e-01 8.81e-01h  1
  25  4.2895120e+04 8.83e-10 1.63e-07  -8.6 4.86e-03    -  1.00e+00 1.00e+00h  1
  26  4.2895120e+04 3.61e-11 2.34e-09  -8.6 1.19e-03    -  1.00e+00 1.00e+00h  1

Number of Iterations....: 26

                                   (scaled)                 (unscaled)
Objective...............:   2.3039224871281963e+01    4.2895120042098861e+04
Dual infeasibility......:   2.3396466993623700e-09    4.3560244142738374e-06
Constraint violation....:   3.6098396781767196e-11    3.6098396781767196e-11
Complementarity.........:   8.2040376732025566e-09    1.5274523461098703e-05
Overall NLP error.......:   8.2040376732025566e-09    1.5274523461098703e-05


Number of objective function evaluations             = 27
Number of objective gradient evaluations             = 27
Number of equality constraint evaluations            = 27
Number of inequality constraint evaluations          = 27
Number of equality constraint Jacobian evaluations   = 27
Number of inequality constraint Jacobian evaluations = 27
Number of Lagrangian Hessian evaluations             = 26
Total CPU secs in IPOPT (w/o function evaluations)   =      0.301
Total CPU secs in NLP function evaluations           =      0.210

EXIT: Optimal Solution Found.
Time to Solution........:1.2589459419250488
cases/matpower/case5_pwlc.m
ipopt
QCRM
[warn | PowerModels]: added zero cost function data for dclines
[warn | PowerModels]: the from bus voltage setpoint on dc line 1 does not match the value at bus 1
[warn | PowerModels]: the to bus voltage setpoint on dc line 1 does not match the value at bus 10
[warn | PowerModels]: exending the pwl costs model on generator 4 by -0.23 to include the minimum active power value 0.0
[warn | PowerModels]: exending the pwl costs model on generator 4 by 1.4599999999999997 to include the maximum active power value 2.0
[warn | PowerModels]: exending the pwl costs model on generator 1 by 0.40800000000000003 to include the maximum active power value 0.4
[warn | PowerModels]: simplifying pwl cost on generator 1, [-0.001, 0.0, 0.0, 0.0, 0.001, 0.0, 0.41000000000000003, 0.0] -> [-0.001, 0.0, 0.41000000000000003, 0.0]
[warn | PowerModels]: exending the pwl costs model on generator 5 by -0.08 to include the minimum active power value 0.0
[warn | PowerModels]: exending the pwl costs model on generator 5 by 5.91 to include the maximum active power value 6.0
[warn | PowerModels]: exending the pwl costs model on generator 2 by 0.20999999999999996 to include the maximum active power value 1.7
[warn | PowerModels]: simplifying pwl cost on generator 2, [0.0, 841.0, 0.2, 841.0, 1.0, 841.0, 1.71, 841.0] -> [0.0, 841.0, 1.71, 841.0]
[warn | PowerModels]: exending the pwl costs model on generator 3 by -1.71 to include the minimum active power value 0.0
[warn | PowerModels]: exending the pwl costs model on generator 3 by 1.6600000000000001 to include the maximum active power value 5.2

******************************************************************************
This program contains Ipopt, a library for large-scale nonlinear optimization.
 Ipopt is released as open source code under the Eclipse Public License (EPL).
         For more information visit http://projects.coin-or.org/Ipopt
******************************************************************************

This is Ipopt version 3.13.2, running with linear solver mumps.
NOTE: Other linear solvers might be more efficient (see Ipopt documentation).

Number of nonzeros in equality constraint Jacobian...:      226
Number of nonzeros in inequality constraint Jacobian.:      386
Number of nonzeros in Lagrangian Hessian.............:       53

Total number of variables............................:      113
                     variables with only lower bounds:        0
                variables with lower and upper bounds:      108
                     variables with only upper bounds:        0
Total number of equality constraints.................:       60
Total number of inequality constraints...............:      148
        inequality constraints with only lower bounds:       71
   inequality constraints with lower and upper bounds:        0
        inequality constraints with only upper bounds:       77

iter    objective    inf_pr   inf_du lg(mu)  ||d||  lg(rg) alpha_du alpha_pr  ls
   0  2.3089486e+03 4.83e+01 6.87e+00  -1.0 0.00e+00    -  0.00e+00 0.00e+00   0
   1  6.8886395e+03 4.59e+01 1.41e+01  -1.0 2.86e+00    -  3.57e-03 4.97e-02f  1
   2  8.5411099e+03 4.33e+01 1.33e+01  -1.0 5.61e+00    -  3.14e-02 5.72e-02f  1
   3  9.1125859e+03 3.86e+01 1.18e+01  -1.0 5.79e+00    -  6.59e-02 1.08e-01f  1
   4  1.0574100e+04 3.61e+01 1.11e+01  -1.0 4.32e+00    -  1.88e-01 6.51e-02h  1
   5  2.2590676e+04 2.19e+01 1.08e+01  -1.0 3.82e+00    -  1.80e-01 3.92e-01h  1
   6  3.6215031e+04 8.31e+00 1.79e+01  -1.0 2.30e+00    -  3.56e-01 6.21e-01h  1
   7  4.3531952e+04 2.52e-01 3.64e+00  -1.0 1.16e+00    -  9.00e-01 9.70e-01h  1
   8  4.6264744e+04 2.56e-12 3.71e+01  -1.0 2.60e+00    -  3.03e-01 1.00e+00f  1
   9  4.6253240e+04 1.33e-11 1.23e-01  -1.0 1.34e-01   0.0 1.00e+00 1.00e+00h  1
iter    objective    inf_pr   inf_du lg(mu)  ||d||  lg(rg) alpha_du alpha_pr  ls
  10  4.3592386e+04 3.70e-12 4.08e+00  -2.5 1.99e+00    -  8.61e-01 8.28e-01f  1
  11  4.3234344e+04 3.02e-12 1.25e+01  -2.5 1.28e+00    -  1.00e+00 6.36e-01f  1
  12  4.3032422e+04 1.06e-02 4.40e-01  -2.5 1.14e+00    -  1.00e+00 9.72e-01f  1
  13  4.3040343e+04 2.68e-12 1.64e-03  -2.5 2.20e-01    -  1.00e+00 1.00e+00h  1
  14  4.2962072e+04 3.50e-02 3.55e-02  -3.8 8.14e-01    -  8.99e-01 8.96e-01h  1
  15  4.2928130e+04 2.26e-02 1.84e-02  -3.8 2.49e-01    -  1.00e+00 9.99e-01h  1
  16  4.2915736e+04 9.10e-12 2.05e-03  -3.8 1.28e-01    -  1.00e+00 1.00e+00h  1
  17  4.2918153e+04 3.83e-12 1.91e-04  -3.8 2.32e-02    -  1.00e+00 1.00e+00h  1
  18  4.2899843e+04 8.52e-03 3.02e-02  -5.7 1.50e-01    -  8.09e-01 9.70e-01h  1
  19  4.2895379e+04 2.47e-03 6.01e-03  -5.7 5.31e-02    -  7.84e-01 9.15e-01h  1
iter    objective    inf_pr   inf_du lg(mu)  ||d||  lg(rg) alpha_du alpha_pr  ls
  20  4.2895274e+04 4.46e-04 7.50e-03  -5.7 2.80e-02    -  1.00e+00 9.40e-01h  1
  21  4.2895320e+04 7.65e-12 1.13e-05  -5.7 1.43e-02    -  1.00e+00 1.00e+00f  1
  22  4.2895316e+04 6.36e-12 2.11e-06  -5.7 3.68e-03    -  1.00e+00 1.00e+00h  1
  23  4.2895162e+04 8.18e-06 3.48e-02  -8.6 1.26e-02    -  9.34e-01 7.19e-01h  1
  24  4.2895134e+04 7.15e-05 3.02e-02  -8.6 1.02e-02    -  9.69e-01 7.64e-01h  1
  25  4.2895130e+04 8.56e-06 1.15e-02  -8.6 4.32e-03    -  6.39e-01 9.51e-01h  1
  26  4.2895130e+04 6.36e-06 5.40e-01  -8.6 6.73e-04    -  8.69e-01 2.50e-01f  3
In iteration 26, 1 Slack too small, adjusting variable bound
  27  4.2895130e+04 3.12e-06 1.43e-01  -8.6 5.12e-04    -  9.24e-01 4.90e-01h  1
  28  4.2895130e+04 4.27e-12 6.66e-08  -8.6 2.62e-04    -  1.00e+00 1.00e+00h  1
  29  4.2895130e+04 2.72e-12 1.19e-11  -8.6 3.58e-05    -  1.00e+00 1.00e+00h  1

Number of Iterations....: 29

                                   (scaled)                 (unscaled)
Objective...............:   2.3039230229081845e+01    4.2895130017411415e+04
Dual infeasibility......:   1.1890375071981012e-11    2.2137857020266388e-08
Constraint violation....:   1.9276247265054280e-14    2.7183394424312727e-12
Complementarity.........:   2.5400745377648300e-09    4.7291869766466891e-06
Overall NLP error.......:   2.5400745377648300e-09    4.7291869766466891e-06


Number of objective function evaluations             = 32
Number of objective gradient evaluations             = 30
Number of equality constraint evaluations            = 32
Number of inequality constraint evaluations          = 32
Number of equality constraint Jacobian evaluations   = 30
Number of inequality constraint Jacobian evaluations = 30
Number of Lagrangian Hessian evaluations             = 29
Total CPU secs in IPOPT (w/o function evaluations)   =      0.316
Total CPU secs in NLP function evaluations           =      0.212

EXIT: Optimal Solution Found.
Time to Solution........:1.315338134765625
